6212 3482
6117 3086
7844 4728
1011 7897
7795 9009
2683 3245
3737 7480
3626 2441
297 3242
619 5834
6221 3841
7834 3616
1499 6265
3522 4284
6680 120
7105 4159
9016 3765
507 4680
3898 4675
1479 4452
2952 6819
1905 6836
7428 2573
2426 897
6965 7599
8786 5172
7688 6322
2658 1655
7841 9749
7744 356
9975 2242
418 2786
1934 5514
3055 4790
5320 5229
8392 4723
8070 7140
7961 5067
1928 6599
5066 2524
964 8707
5640 8351
1291 5032
3490 7710
753 2986
6664 2981
9201 5758
4516 5046
5610 6257
8080 1213
